# Objective value = 257
is_xfc[1] 0
is_xfc[2] 0
is_xfc[3] 0
is_xfc[6] 0
is_xfc[4] 1
is_xfc[12] 0
is_xfc[5] 0
is_xfc[11] 0
is_xfc[9] 0
is_xfc[8] 0
is_xfc[7] 0
is_xfc[18] 0
is_xfc[16] 0
is_xfc[10] 0
is_xfc[15] 0
is_xfc[17] 0
is_xfc[14] 0
is_xfc[13] 0
is_xfc[24] 0
is_xfc[23] 0
is_xfc[19] 0
is_xfc[22] 0
is_xfc[20] 0
is_xfc[21] 0
dist_Node(1)_Node(1) 0
xfc_Node(1)_Node(1) 23
dist_Node(1)_Node(2) 6
xfc_Node(1)_Node(2) 29
dist_Node(1)_Node(3) 4
xfc_Node(1)_Node(3) 27
dist_Node(1)_Node(6) 11
xfc_Node(1)_Node(6) 34
dist_Node(1)_Node(4) 8
xfc_Node(1)_Node(4) 8
dist_Node(1)_Node(12) 8
xfc_Node(1)_Node(12) 31
dist_Node(1)_Node(5) 10
xfc_Node(1)_Node(5) 33
dist_Node(1)_Node(11) 14
xfc_Node(1)_Node(11) 37
dist_Node(1)_Node(9) 15
xfc_Node(1)_Node(9) 38
dist_Node(1)_Node(8) 13
xfc_Node(1)_Node(8) 36
dist_Node(1)_Node(7) 16
xfc_Node(1)_Node(7) 39
dist_Node(1)_Node(18) 18
xfc_Node(1)_Node(18) 41
dist_Node(1)_Node(16) 18
xfc_Node(1)_Node(16) 41
dist_Node(1)_Node(10) 18
xfc_Node(1)_Node(10) 41
dist_Node(1)_Node(15) 23
xfc_Node(1)_Node(15) 46
dist_Node(1)_Node(17) 20
xfc_Node(1)_Node(17) 43
dist_Node(1)_Node(14) 18
xfc_Node(1)_Node(14) 41
dist_Node(1)_Node(13) 11
xfc_Node(1)_Node(13) 34
dist_Node(1)_Node(24) 15
xfc_Node(1)_Node(24) 38
dist_Node(1)_Node(23) 17
xfc_Node(1)_Node(23) 40
dist_Node(1)_Node(19) 22
xfc_Node(1)_Node(19) 45
dist_Node(1)_Node(22) 20
xfc_Node(1)_Node(22) 43
dist_Node(1)_Node(20) 22
xfc_Node(1)_Node(20) 45
dist_Node(1)_Node(21) 18
xfc_Node(1)_Node(21) 41
dist_Node(2)_Node(1) 6
xfc_Node(2)_Node(1) 29
dist_Node(2)_Node(2) 0
xfc_Node(2)_Node(2) 23
dist_Node(2)_Node(3) 10
xfc_Node(2)_Node(3) 33
dist_Node(2)_Node(6) 5
xfc_Node(2)_Node(6) 28
dist_Node(2)_Node(4) 11
xfc_Node(2)_Node(4) 11
dist_Node(2)_Node(12) 14
xfc_Node(2)_Node(12) 37
dist_Node(2)_Node(5) 9
xfc_Node(2)_Node(5) 32
dist_Node(2)_Node(11) 17
xfc_Node(2)_Node(11) 40
dist_Node(2)_Node(9) 14
xfc_Node(2)_Node(9) 37
dist_Node(2)_Node(8) 7
xfc_Node(2)_Node(8) 30
dist_Node(2)_Node(7) 10
xfc_Node(2)_Node(7) 33
dist_Node(2)_Node(18) 12
xfc_Node(2)_Node(18) 35
dist_Node(2)_Node(16) 12
xfc_Node(2)_Node(16) 35
dist_Node(2)_Node(10) 16
xfc_Node(2)_Node(10) 39
dist_Node(2)_Node(15) 19
xfc_Node(2)_Node(15) 42
dist_Node(2)_Node(17) 14
xfc_Node(2)_Node(17) 37
dist_Node(2)_Node(14) 21
xfc_Node(2)_Node(14) 44
dist_Node(2)_Node(13) 17
xfc_Node(2)_Node(13) 40
dist_Node(2)_Node(24) 21
xfc_Node(2)_Node(24) 44
dist_Node(2)_Node(23) 23
xfc_Node(2)_Node(23) 46
dist_Node(2)_Node(19) 16
xfc_Node(2)_Node(19) 39
dist_Node(2)_Node(22) 21
xfc_Node(2)_Node(22) 44
dist_Node(2)_Node(20) 16
xfc_Node(2)_Node(20) 39
dist_Node(2)_Node(21) 22
xfc_Node(2)_Node(21) 45
dist_Node(3)_Node(1) 4
xfc_Node(3)_Node(1) 27
dist_Node(3)_Node(2) 10
xfc_Node(3)_Node(2) 33
dist_Node(3)_Node(3) 0
xfc_Node(3)_Node(3) 23
dist_Node(3)_Node(6) 10
xfc_Node(3)_Node(6) 33
dist_Node(3)_Node(4) 4
xfc_Node(3)_Node(4) 4
dist_Node(3)_Node(12) 4
xfc_Node(3)_Node(12) 27
dist_Node(3)_Node(5) 6
xfc_Node(3)_Node(5) 29
dist_Node(3)_Node(11) 10
xfc_Node(3)_Node(11) 33
dist_Node(3)_Node(9) 11
xfc_Node(3)_Node(9) 34
dist_Node(3)_Node(8) 12
xfc_Node(3)_Node(8) 35
dist_Node(3)_Node(7) 15
xfc_Node(3)_Node(7) 38
dist_Node(3)_Node(18) 17
xfc_Node(3)_Node(18) 40
dist_Node(3)_Node(16) 17
xfc_Node(3)_Node(16) 40
dist_Node(3)_Node(10) 14
xfc_Node(3)_Node(10) 37
dist_Node(3)_Node(15) 19
xfc_Node(3)_Node(15) 42
dist_Node(3)_Node(17) 19
xfc_Node(3)_Node(17) 42
dist_Node(3)_Node(14) 14
xfc_Node(3)_Node(14) 37
dist_Node(3)_Node(13) 7
xfc_Node(3)_Node(13) 30
dist_Node(3)_Node(24) 11
xfc_Node(3)_Node(24) 34
dist_Node(3)_Node(23) 13
xfc_Node(3)_Node(23) 36
dist_Node(3)_Node(19) 21
xfc_Node(3)_Node(19) 44
dist_Node(3)_Node(22) 16
xfc_Node(3)_Node(22) 39
dist_Node(3)_Node(20) 20
xfc_Node(3)_Node(20) 43
dist_Node(3)_Node(21) 14
xfc_Node(3)_Node(21) 37
dist_Node(6)_Node(1) 11
xfc_Node(6)_Node(1) 34
dist_Node(6)_Node(2) 5
xfc_Node(6)_Node(2) 28
dist_Node(6)_Node(3) 10
xfc_Node(6)_Node(3) 33
dist_Node(6)_Node(6) 0
xfc_Node(6)_Node(6) 23
dist_Node(6)_Node(4) 6
xfc_Node(6)_Node(4) 6
dist_Node(6)_Node(12) 14
xfc_Node(6)_Node(12) 37
dist_Node(6)_Node(5) 4
xfc_Node(6)_Node(5) 27
dist_Node(6)_Node(11) 12
xfc_Node(6)_Node(11) 35
dist_Node(6)_Node(9) 9
xfc_Node(6)_Node(9) 32
dist_Node(6)_Node(8) 2
xfc_Node(6)_Node(8) 25
dist_Node(6)_Node(7) 5
xfc_Node(6)_Node(7) 28
dist_Node(6)_Node(18) 7
xfc_Node(6)_Node(18) 30
dist_Node(6)_Node(16) 7
xfc_Node(6)_Node(16) 30
dist_Node(6)_Node(10) 11
xfc_Node(6)_Node(10) 34
dist_Node(6)_Node(15) 14
xfc_Node(6)_Node(15) 37
dist_Node(6)_Node(17) 9
xfc_Node(6)_Node(17) 32
dist_Node(6)_Node(14) 16
xfc_Node(6)_Node(14) 39
dist_Node(6)_Node(13) 17
xfc_Node(6)_Node(13) 40
dist_Node(6)_Node(24) 20
xfc_Node(6)_Node(24) 43
dist_Node(6)_Node(23) 20
xfc_Node(6)_Node(23) 43
dist_Node(6)_Node(19) 11
xfc_Node(6)_Node(19) 34
dist_Node(6)_Node(22) 16
xfc_Node(6)_Node(22) 39
dist_Node(6)_Node(20) 11
xfc_Node(6)_Node(20) 34
dist_Node(6)_Node(21) 17
xfc_Node(6)_Node(21) 40
dist_Node(4)_Node(1) 8
xfc_Node(4)_Node(1) 31
dist_Node(4)_Node(2) 11
xfc_Node(4)_Node(2) 34
dist_Node(4)_Node(3) 4
xfc_Node(4)_Node(3) 27
dist_Node(4)_Node(6) 6
xfc_Node(4)_Node(6) 29
dist_Node(4)_Node(4) 0
xfc_Node(4)_Node(4) 0
dist_Node(4)_Node(12) 8
xfc_Node(4)_Node(12) 31
dist_Node(4)_Node(5) 2
xfc_Node(4)_Node(5) 25
dist_Node(4)_Node(11) 6
xfc_Node(4)_Node(11) 29
dist_Node(4)_Node(9) 7
xfc_Node(4)_Node(9) 30
dist_Node(4)_Node(8) 8
xfc_Node(4)_Node(8) 31
dist_Node(4)_Node(7) 11
xfc_Node(4)_Node(7) 34
dist_Node(4)_Node(18) 13
xfc_Node(4)_Node(18) 36
dist_Node(4)_Node(16) 13
xfc_Node(4)_Node(16) 36
dist_Node(4)_Node(10) 10
xfc_Node(4)_Node(10) 33
dist_Node(4)_Node(15) 15
xfc_Node(4)_Node(15) 38
dist_Node(4)_Node(17) 15
xfc_Node(4)_Node(17) 38
dist_Node(4)_Node(14) 10
xfc_Node(4)_Node(14) 33
dist_Node(4)_Node(13) 11
xfc_Node(4)_Node(13) 34
dist_Node(4)_Node(24) 15
xfc_Node(4)_Node(24) 38
dist_Node(4)_Node(23) 14
xfc_Node(4)_Node(23) 37
dist_Node(4)_Node(19) 17
xfc_Node(4)_Node(19) 40
dist_Node(4)_Node(22) 18
xfc_Node(4)_Node(22) 41
dist_Node(4)_Node(20) 17
xfc_Node(4)_Node(20) 40
dist_Node(4)_Node(21) 18
xfc_Node(4)_Node(21) 41
dist_Node(12)_Node(1) 8
xfc_Node(12)_Node(1) 31
dist_Node(12)_Node(2) 14
xfc_Node(12)_Node(2) 37
dist_Node(12)_Node(3) 4
xfc_Node(12)_Node(3) 27
dist_Node(12)_Node(6) 14
xfc_Node(12)_Node(6) 37
dist_Node(12)_Node(4) 8
xfc_Node(12)_Node(4) 8
dist_Node(12)_Node(12) 0
xfc_Node(12)_Node(12) 23
dist_Node(12)_Node(5) 10
xfc_Node(12)_Node(5) 33
dist_Node(12)_Node(11) 6
xfc_Node(12)_Node(11) 29
dist_Node(12)_Node(9) 14
xfc_Node(12)_Node(9) 37
dist_Node(12)_Node(8) 16
xfc_Node(12)_Node(8) 39
dist_Node(12)_Node(7) 19
xfc_Node(12)_Node(7) 42
dist_Node(12)_Node(18) 18
xfc_Node(12)_Node(18) 41
dist_Node(12)_Node(16) 15
xfc_Node(12)_Node(16) 38
dist_Node(12)_Node(10) 11
xfc_Node(12)_Node(10) 34
dist_Node(12)_Node(15) 15
xfc_Node(12)_Node(15) 38
dist_Node(12)_Node(17) 17
xfc_Node(12)_Node(17) 40
dist_Node(12)_Node(14) 10
xfc_Node(12)_Node(14) 33
dist_Node(12)_Node(13) 3
xfc_Node(12)_Node(13) 26
dist_Node(12)_Node(24) 7
xfc_Node(12)_Node(24) 30
dist_Node(12)_Node(23) 9
xfc_Node(12)_Node(23) 32
dist_Node(12)_Node(19) 18
xfc_Node(12)_Node(19) 41
dist_Node(12)_Node(22) 12
xfc_Node(12)_Node(22) 35
dist_Node(12)_Node(20) 16
xfc_Node(12)_Node(20) 39
dist_Node(12)_Node(21) 10
xfc_Node(12)_Node(21) 33
dist_Node(5)_Node(1) 10
xfc_Node(5)_Node(1) 33
dist_Node(5)_Node(2) 9
xfc_Node(5)_Node(2) 32
dist_Node(5)_Node(3) 6
xfc_Node(5)_Node(3) 29
dist_Node(5)_Node(6) 4
xfc_Node(5)_Node(6) 27
dist_Node(5)_Node(4) 2
xfc_Node(5)_Node(4) 2
dist_Node(5)_Node(12) 10
xfc_Node(5)_Node(12) 33
dist_Node(5)_Node(5) 0
xfc_Node(5)_Node(5) 23
dist_Node(5)_Node(11) 8
xfc_Node(5)_Node(11) 31
dist_Node(5)_Node(9) 5
xfc_Node(5)_Node(9) 28
dist_Node(5)_Node(8) 6
xfc_Node(5)_Node(8) 29
dist_Node(5)_Node(7) 9
xfc_Node(5)_Node(7) 32
dist_Node(5)_Node(18) 11
xfc_Node(5)_Node(18) 34
dist_Node(5)_Node(16) 11
xfc_Node(5)_Node(16) 34
dist_Node(5)_Node(10) 8
xfc_Node(5)_Node(10) 31
dist_Node(5)_Node(15) 14
xfc_Node(5)_Node(15) 37
dist_Node(5)_Node(17) 13
xfc_Node(5)_Node(17) 36
dist_Node(5)_Node(14) 12
xfc_Node(5)_Node(14) 35
dist_Node(5)_Node(13) 13
xfc_Node(5)_Node(13) 36
dist_Node(5)_Node(24) 17
xfc_Node(5)_Node(24) 40
dist_Node(5)_Node(23) 16
xfc_Node(5)_Node(23) 39
dist_Node(5)_Node(19) 15
xfc_Node(5)_Node(19) 38
dist_Node(5)_Node(22) 17
xfc_Node(5)_Node(22) 40
dist_Node(5)_Node(20) 15
xfc_Node(5)_Node(20) 38
dist_Node(5)_Node(21) 19
xfc_Node(5)_Node(21) 42
dist_Node(11)_Node(1) 14
xfc_Node(11)_Node(1) 37
dist_Node(11)_Node(2) 17
xfc_Node(11)_Node(2) 40
dist_Node(11)_Node(3) 10
xfc_Node(11)_Node(3) 33
dist_Node(11)_Node(6) 12
xfc_Node(11)_Node(6) 35
dist_Node(11)_Node(4) 6
xfc_Node(11)_Node(4) 6
dist_Node(11)_Node(12) 6
xfc_Node(11)_Node(12) 29
dist_Node(11)_Node(5) 8
xfc_Node(11)_Node(5) 31
dist_Node(11)_Node(11) 0
xfc_Node(11)_Node(11) 23
dist_Node(11)_Node(9) 8
xfc_Node(11)_Node(9) 31
dist_Node(11)_Node(8) 14
xfc_Node(11)_Node(8) 37
dist_Node(11)_Node(7) 14
xfc_Node(11)_Node(7) 37
dist_Node(11)_Node(18) 12
xfc_Node(11)_Node(18) 35
dist_Node(11)_Node(16) 9
xfc_Node(11)_Node(16) 32
dist_Node(11)_Node(10) 5
xfc_Node(11)_Node(10) 28
dist_Node(11)_Node(15) 9
xfc_Node(11)_Node(15) 32
dist_Node(11)_Node(17) 11
xfc_Node(11)_Node(17) 34
dist_Node(11)_Node(14) 4
xfc_Node(11)_Node(14) 27
dist_Node(11)_Node(13) 9
xfc_Node(11)_Node(13) 32
dist_Node(11)_Node(24) 10
xfc_Node(11)_Node(24) 33
dist_Node(11)_Node(23) 8
xfc_Node(11)_Node(23) 31
dist_Node(11)_Node(19) 12
xfc_Node(11)_Node(19) 35
dist_Node(11)_Node(22) 12
xfc_Node(11)_Node(22) 35
dist_Node(11)_Node(20) 16
xfc_Node(11)_Node(20) 39
dist_Node(11)_Node(21) 13
xfc_Node(11)_Node(21) 36
dist_Node(9)_Node(1) 15
xfc_Node(9)_Node(1) 38
dist_Node(9)_Node(2) 14
xfc_Node(9)_Node(2) 37
dist_Node(9)_Node(3) 11
xfc_Node(9)_Node(3) 34
dist_Node(9)_Node(6) 9
xfc_Node(9)_Node(6) 32
dist_Node(9)_Node(4) 7
xfc_Node(9)_Node(4) 7
dist_Node(9)_Node(12) 14
xfc_Node(9)_Node(12) 37
dist_Node(9)_Node(5) 5
xfc_Node(9)_Node(5) 28
dist_Node(9)_Node(11) 8
xfc_Node(9)_Node(11) 31
dist_Node(9)_Node(9) 0
xfc_Node(9)_Node(9) 23
dist_Node(9)_Node(8) 10
xfc_Node(9)_Node(8) 33
dist_Node(9)_Node(7) 12
xfc_Node(9)_Node(7) 35
dist_Node(9)_Node(18) 10
xfc_Node(9)_Node(18) 33
dist_Node(9)_Node(16) 7
xfc_Node(9)_Node(16) 30
dist_Node(9)_Node(10) 3
xfc_Node(9)_Node(10) 26
dist_Node(9)_Node(15) 9
xfc_Node(9)_Node(15) 32
dist_Node(9)_Node(17) 9
xfc_Node(9)_Node(17) 32
dist_Node(9)_Node(14) 12
xfc_Node(9)_Node(14) 35
dist_Node(9)_Node(13) 17
xfc_Node(9)_Node(13) 40
dist_Node(9)_Node(24) 17
xfc_Node(9)_Node(24) 40
dist_Node(9)_Node(23) 16
xfc_Node(9)_Node(23) 39
dist_Node(9)_Node(19) 11
xfc_Node(9)_Node(19) 34
dist_Node(9)_Node(22) 12
xfc_Node(9)_Node(22) 35
dist_Node(9)_Node(20) 14
xfc_Node(9)_Node(20) 37
dist_Node(9)_Node(21) 14
xfc_Node(9)_Node(21) 37
dist_Node(8)_Node(1) 13
xfc_Node(8)_Node(1) 36
dist_Node(8)_Node(2) 7
xfc_Node(8)_Node(2) 30
dist_Node(8)_Node(3) 12
xfc_Node(8)_Node(3) 35
dist_Node(8)_Node(6) 2
xfc_Node(8)_Node(6) 25
dist_Node(8)_Node(4) 8
xfc_Node(8)_Node(4) 8
dist_Node(8)_Node(12) 16
xfc_Node(8)_Node(12) 39
dist_Node(8)_Node(5) 6
xfc_Node(8)_Node(5) 29
dist_Node(8)_Node(11) 14
xfc_Node(8)_Node(11) 37
dist_Node(8)_Node(9) 10
xfc_Node(8)_Node(9) 33
dist_Node(8)_Node(8) 0
xfc_Node(8)_Node(8) 23
dist_Node(8)_Node(7) 3
xfc_Node(8)_Node(7) 26
dist_Node(8)_Node(18) 5
xfc_Node(8)_Node(18) 28
dist_Node(8)_Node(16) 5
xfc_Node(8)_Node(16) 28
dist_Node(8)_Node(10) 9
xfc_Node(8)_Node(10) 32
dist_Node(8)_Node(15) 12
xfc_Node(8)_Node(15) 35
dist_Node(8)_Node(17) 7
xfc_Node(8)_Node(17) 30
dist_Node(8)_Node(14) 17
xfc_Node(8)_Node(14) 40
dist_Node(8)_Node(13) 19
xfc_Node(8)_Node(13) 42
dist_Node(8)_Node(24) 18
xfc_Node(8)_Node(24) 41
dist_Node(8)_Node(23) 18
xfc_Node(8)_Node(23) 41
dist_Node(8)_Node(19) 9
xfc_Node(8)_Node(19) 32
dist_Node(8)_Node(22) 14
xfc_Node(8)_Node(22) 37
dist_Node(8)_Node(20) 9
xfc_Node(8)_Node(20) 32
dist_Node(8)_Node(21) 15
xfc_Node(8)_Node(21) 38
dist_Node(7)_Node(1) 16
xfc_Node(7)_Node(1) 39
dist_Node(7)_Node(2) 10
xfc_Node(7)_Node(2) 33
dist_Node(7)_Node(3) 15
xfc_Node(7)_Node(3) 38
dist_Node(7)_Node(6) 5
xfc_Node(7)_Node(6) 28
dist_Node(7)_Node(4) 11
xfc_Node(7)_Node(4) 11
dist_Node(7)_Node(12) 19
xfc_Node(7)_Node(12) 42
dist_Node(7)_Node(5) 9
xfc_Node(7)_Node(5) 32
dist_Node(7)_Node(11) 14
xfc_Node(7)_Node(11) 37
dist_Node(7)_Node(9) 12
xfc_Node(7)_Node(9) 35
dist_Node(7)_Node(8) 3
xfc_Node(7)_Node(8) 26
dist_Node(7)_Node(7) 0
xfc_Node(7)_Node(7) 23
dist_Node(7)_Node(18) 2
xfc_Node(7)_Node(18) 25
dist_Node(7)_Node(16) 5
xfc_Node(7)_Node(16) 28
dist_Node(7)_Node(10) 9
xfc_Node(7)_Node(10) 32
dist_Node(7)_Node(15) 12
xfc_Node(7)_Node(15) 35
dist_Node(7)_Node(17) 7
xfc_Node(7)_Node(17) 30
dist_Node(7)_Node(14) 17
xfc_Node(7)_Node(14) 40
dist_Node(7)_Node(13) 19
xfc_Node(7)_Node(13) 42
dist_Node(7)_Node(24) 15
xfc_Node(7)_Node(24) 38
dist_Node(7)_Node(23) 15
xfc_Node(7)_Node(23) 38
dist_Node(7)_Node(19) 9
xfc_Node(7)_Node(19) 32
dist_Node(7)_Node(22) 11
xfc_Node(7)_Node(22) 34
dist_Node(7)_Node(20) 6
xfc_Node(7)_Node(20) 29
dist_Node(7)_Node(21) 12
xfc_Node(7)_Node(21) 35
dist_Node(18)_Node(1) 18
xfc_Node(18)_Node(1) 41
dist_Node(18)_Node(2) 12
xfc_Node(18)_Node(2) 35
dist_Node(18)_Node(3) 17
xfc_Node(18)_Node(3) 40
dist_Node(18)_Node(6) 7
xfc_Node(18)_Node(6) 30
dist_Node(18)_Node(4) 13
xfc_Node(18)_Node(4) 13
dist_Node(18)_Node(12) 18
xfc_Node(18)_Node(12) 41
dist_Node(18)_Node(5) 11
xfc_Node(18)_Node(5) 34
dist_Node(18)_Node(11) 12
xfc_Node(18)_Node(11) 35
dist_Node(18)_Node(9) 10
xfc_Node(18)_Node(9) 33
dist_Node(18)_Node(8) 5
xfc_Node(18)_Node(8) 28
dist_Node(18)_Node(7) 2
xfc_Node(18)_Node(7) 25
dist_Node(18)_Node(18) 0
xfc_Node(18)_Node(18) 23
dist_Node(18)_Node(16) 3
xfc_Node(18)_Node(16) 26
dist_Node(18)_Node(10) 7
xfc_Node(18)_Node(10) 30
dist_Node(18)_Node(15) 10
xfc_Node(18)_Node(15) 33
dist_Node(18)_Node(17) 5
xfc_Node(18)_Node(17) 28
dist_Node(18)_Node(14) 15
xfc_Node(18)_Node(14) 38
dist_Node(18)_Node(13) 17
xfc_Node(18)_Node(13) 40
dist_Node(18)_Node(24) 13
xfc_Node(18)_Node(24) 36
dist_Node(18)_Node(23) 13
xfc_Node(18)_Node(23) 36
dist_Node(18)_Node(19) 7
xfc_Node(18)_Node(19) 30
dist_Node(18)_Node(22) 9
xfc_Node(18)_Node(22) 32
dist_Node(18)_Node(20) 4
xfc_Node(18)_Node(20) 27
dist_Node(18)_Node(21) 10
xfc_Node(18)_Node(21) 33
dist_Node(16)_Node(1) 18
xfc_Node(16)_Node(1) 41
dist_Node(16)_Node(2) 12
xfc_Node(16)_Node(2) 35
dist_Node(16)_Node(3) 17
xfc_Node(16)_Node(3) 40
dist_Node(16)_Node(6) 7
xfc_Node(16)_Node(6) 30
dist_Node(16)_Node(4) 13
xfc_Node(16)_Node(4) 13
dist_Node(16)_Node(12) 15
xfc_Node(16)_Node(12) 38
dist_Node(16)_Node(5) 11
xfc_Node(16)_Node(5) 34
dist_Node(16)_Node(11) 9
xfc_Node(16)_Node(11) 32
dist_Node(16)_Node(9) 7
xfc_Node(16)_Node(9) 30
dist_Node(16)_Node(8) 5
xfc_Node(16)_Node(8) 28
dist_Node(16)_Node(7) 5
xfc_Node(16)_Node(7) 28
dist_Node(16)_Node(18) 3
xfc_Node(16)_Node(18) 26
dist_Node(16)_Node(16) 0
xfc_Node(16)_Node(16) 23
dist_Node(16)_Node(10) 4
xfc_Node(16)_Node(10) 27
dist_Node(16)_Node(15) 7
xfc_Node(16)_Node(15) 30
dist_Node(16)_Node(17) 2
xfc_Node(16)_Node(17) 25
dist_Node(16)_Node(14) 12
xfc_Node(16)_Node(14) 35
dist_Node(16)_Node(13) 18
xfc_Node(16)_Node(13) 41
dist_Node(16)_Node(24) 15
xfc_Node(16)_Node(24) 38
dist_Node(16)_Node(23) 14
xfc_Node(16)_Node(23) 37
dist_Node(16)_Node(19) 4
xfc_Node(16)_Node(19) 27
dist_Node(16)_Node(22) 10
xfc_Node(16)_Node(22) 33
dist_Node(16)_Node(20) 7
xfc_Node(16)_Node(20) 30
dist_Node(16)_Node(21) 12
xfc_Node(16)_Node(21) 35
dist_Node(10)_Node(1) 18
xfc_Node(10)_Node(1) 41
dist_Node(10)_Node(2) 16
xfc_Node(10)_Node(2) 39
dist_Node(10)_Node(3) 14
xfc_Node(10)_Node(3) 37
dist_Node(10)_Node(6) 11
xfc_Node(10)_Node(6) 34
dist_Node(10)_Node(4) 10
xfc_Node(10)_Node(4) 10
dist_Node(10)_Node(12) 11
xfc_Node(10)_Node(12) 34
dist_Node(10)_Node(5) 8
xfc_Node(10)_Node(5) 31
dist_Node(10)_Node(11) 5
xfc_Node(10)_Node(11) 28
dist_Node(10)_Node(9) 3
xfc_Node(10)_Node(9) 26
dist_Node(10)_Node(8) 9
xfc_Node(10)_Node(8) 32
dist_Node(10)_Node(7) 9
xfc_Node(10)_Node(7) 32
dist_Node(10)_Node(18) 7
xfc_Node(10)_Node(18) 30
dist_Node(10)_Node(16) 4
xfc_Node(10)_Node(16) 27
dist_Node(10)_Node(10) 0
xfc_Node(10)_Node(10) 23
dist_Node(10)_Node(15) 6
xfc_Node(10)_Node(15) 29
dist_Node(10)_Node(17) 6
xfc_Node(10)_Node(17) 29
dist_Node(10)_Node(14) 9
xfc_Node(10)_Node(14) 32
dist_Node(10)_Node(13) 14
xfc_Node(10)_Node(13) 37
dist_Node(10)_Node(24) 14
xfc_Node(10)_Node(24) 37
dist_Node(10)_Node(23) 13
xfc_Node(10)_Node(23) 36
dist_Node(10)_Node(19) 8
xfc_Node(10)_Node(19) 31
dist_Node(10)_Node(22) 9
xfc_Node(10)_Node(22) 32
dist_Node(10)_Node(20) 11
xfc_Node(10)_Node(20) 34
dist_Node(10)_Node(21) 11
xfc_Node(10)_Node(21) 34
dist_Node(15)_Node(1) 23
xfc_Node(15)_Node(1) 46
dist_Node(15)_Node(2) 19
xfc_Node(15)_Node(2) 42
dist_Node(15)_Node(3) 19
xfc_Node(15)_Node(3) 42
dist_Node(15)_Node(6) 14
xfc_Node(15)_Node(6) 37
dist_Node(15)_Node(4) 15
xfc_Node(15)_Node(4) 15
dist_Node(15)_Node(12) 15
xfc_Node(15)_Node(12) 38
dist_Node(15)_Node(5) 14
xfc_Node(15)_Node(5) 37
dist_Node(15)_Node(11) 9
xfc_Node(15)_Node(11) 32
dist_Node(15)_Node(9) 9
xfc_Node(15)_Node(9) 32
dist_Node(15)_Node(8) 12
xfc_Node(15)_Node(8) 35
dist_Node(15)_Node(7) 12
xfc_Node(15)_Node(7) 35
dist_Node(15)_Node(18) 10
xfc_Node(15)_Node(18) 33
dist_Node(15)_Node(16) 7
xfc_Node(15)_Node(16) 30
dist_Node(15)_Node(10) 6
xfc_Node(15)_Node(10) 29
dist_Node(15)_Node(15) 0
xfc_Node(15)_Node(15) 23
dist_Node(15)_Node(17) 5
xfc_Node(15)_Node(17) 28
dist_Node(15)_Node(14) 5
xfc_Node(15)_Node(14) 28
dist_Node(15)_Node(13) 12
xfc_Node(15)_Node(13) 35
dist_Node(15)_Node(24) 8
xfc_Node(15)_Node(24) 31
dist_Node(15)_Node(23) 7
xfc_Node(15)_Node(23) 30
dist_Node(15)_Node(19) 3
xfc_Node(15)_Node(19) 26
dist_Node(15)_Node(22) 3
xfc_Node(15)_Node(22) 26
dist_Node(15)_Node(20) 7
xfc_Node(15)_Node(20) 30
dist_Node(15)_Node(21) 5
xfc_Node(15)_Node(21) 28
dist_Node(17)_Node(1) 20
xfc_Node(17)_Node(1) 43
dist_Node(17)_Node(2) 14
xfc_Node(17)_Node(2) 37
dist_Node(17)_Node(3) 19
xfc_Node(17)_Node(3) 42
dist_Node(17)_Node(6) 9
xfc_Node(17)_Node(6) 32
dist_Node(17)_Node(4) 15
xfc_Node(17)_Node(4) 15
dist_Node(17)_Node(12) 17
xfc_Node(17)_Node(12) 40
dist_Node(17)_Node(5) 13
xfc_Node(17)_Node(5) 36
dist_Node(17)_Node(11) 11
xfc_Node(17)_Node(11) 34
dist_Node(17)_Node(9) 9
xfc_Node(17)_Node(9) 32
dist_Node(17)_Node(8) 7
xfc_Node(17)_Node(8) 30
dist_Node(17)_Node(7) 7
xfc_Node(17)_Node(7) 30
dist_Node(17)_Node(18) 5
xfc_Node(17)_Node(18) 28
dist_Node(17)_Node(16) 2
xfc_Node(17)_Node(16) 25
dist_Node(17)_Node(10) 6
xfc_Node(17)_Node(10) 29
dist_Node(17)_Node(15) 5
xfc_Node(17)_Node(15) 28
dist_Node(17)_Node(17) 0
xfc_Node(17)_Node(17) 23
dist_Node(17)_Node(14) 10
xfc_Node(17)_Node(14) 33
dist_Node(17)_Node(13) 17
xfc_Node(17)_Node(13) 40
dist_Node(17)_Node(24) 13
xfc_Node(17)_Node(24) 36
dist_Node(17)_Node(23) 12
xfc_Node(17)_Node(23) 35
dist_Node(17)_Node(19) 2
xfc_Node(17)_Node(19) 25
dist_Node(17)_Node(22) 8
xfc_Node(17)_Node(22) 31
dist_Node(17)_Node(20) 6
xfc_Node(17)_Node(20) 29
dist_Node(17)_Node(21) 10
xfc_Node(17)_Node(21) 33
dist_Node(14)_Node(1) 18
xfc_Node(14)_Node(1) 41
dist_Node(14)_Node(2) 21
xfc_Node(14)_Node(2) 44
dist_Node(14)_Node(3) 14
xfc_Node(14)_Node(3) 37
dist_Node(14)_Node(6) 16
xfc_Node(14)_Node(6) 39
dist_Node(14)_Node(4) 10
xfc_Node(14)_Node(4) 10
dist_Node(14)_Node(12) 10
xfc_Node(14)_Node(12) 33
dist_Node(14)_Node(5) 12
xfc_Node(14)_Node(5) 35
dist_Node(14)_Node(11) 4
xfc_Node(14)_Node(11) 27
dist_Node(14)_Node(9) 12
xfc_Node(14)_Node(9) 35
dist_Node(14)_Node(8) 17
xfc_Node(14)_Node(8) 40
dist_Node(14)_Node(7) 17
xfc_Node(14)_Node(7) 40
dist_Node(14)_Node(18) 15
xfc_Node(14)_Node(18) 38
dist_Node(14)_Node(16) 12
xfc_Node(14)_Node(16) 35
dist_Node(14)_Node(10) 9
xfc_Node(14)_Node(10) 32
dist_Node(14)_Node(15) 5
xfc_Node(14)_Node(15) 28
dist_Node(14)_Node(17) 10
xfc_Node(14)_Node(17) 33
dist_Node(14)_Node(14) 0
xfc_Node(14)_Node(14) 23
dist_Node(14)_Node(13) 10
xfc_Node(14)_Node(13) 33
dist_Node(14)_Node(24) 6
xfc_Node(14)_Node(24) 29
dist_Node(14)_Node(23) 4
xfc_Node(14)_Node(23) 27
dist_Node(14)_Node(19) 8
xfc_Node(14)_Node(19) 31
dist_Node(14)_Node(22) 8
xfc_Node(14)_Node(22) 31
dist_Node(14)_Node(20) 12
xfc_Node(14)_Node(20) 35
dist_Node(14)_Node(21) 9
xfc_Node(14)_Node(21) 32
dist_Node(13)_Node(1) 11
xfc_Node(13)_Node(1) 34
dist_Node(13)_Node(2) 17
xfc_Node(13)_Node(2) 40
dist_Node(13)_Node(3) 7
xfc_Node(13)_Node(3) 30
dist_Node(13)_Node(6) 17
xfc_Node(13)_Node(6) 40
dist_Node(13)_Node(4) 11
xfc_Node(13)_Node(4) 11
dist_Node(13)_Node(12) 3
xfc_Node(13)_Node(12) 26
dist_Node(13)_Node(5) 13
xfc_Node(13)_Node(5) 36
dist_Node(13)_Node(11) 9
xfc_Node(13)_Node(11) 32
dist_Node(13)_Node(9) 17
xfc_Node(13)_Node(9) 40
dist_Node(13)_Node(8) 19
xfc_Node(13)_Node(8) 42
dist_Node(13)_Node(7) 19
xfc_Node(13)_Node(7) 42
dist_Node(13)_Node(18) 17
xfc_Node(13)_Node(18) 40
dist_Node(13)_Node(16) 18
xfc_Node(13)_Node(16) 41
dist_Node(13)_Node(10) 14
xfc_Node(13)_Node(10) 37
dist_Node(13)_Node(15) 12
xfc_Node(13)_Node(15) 35
dist_Node(13)_Node(17) 17
xfc_Node(13)_Node(17) 40
dist_Node(13)_Node(14) 10
xfc_Node(13)_Node(14) 33
dist_Node(13)_Node(13) 0
xfc_Node(13)_Node(13) 23
dist_Node(13)_Node(24) 4
xfc_Node(13)_Node(24) 27
dist_Node(13)_Node(23) 6
xfc_Node(13)_Node(23) 29
dist_Node(13)_Node(19) 15
xfc_Node(13)_Node(19) 38
dist_Node(13)_Node(22) 9
xfc_Node(13)_Node(22) 32
dist_Node(13)_Node(20) 13
xfc_Node(13)_Node(20) 36
dist_Node(13)_Node(21) 7
xfc_Node(13)_Node(21) 30
dist_Node(24)_Node(1) 15
xfc_Node(24)_Node(1) 38
dist_Node(24)_Node(2) 21
xfc_Node(24)_Node(2) 44
dist_Node(24)_Node(3) 11
xfc_Node(24)_Node(3) 34
dist_Node(24)_Node(6) 20
xfc_Node(24)_Node(6) 43
dist_Node(24)_Node(4) 15
xfc_Node(24)_Node(4) 15
dist_Node(24)_Node(12) 7
xfc_Node(24)_Node(12) 30
dist_Node(24)_Node(5) 17
xfc_Node(24)_Node(5) 40
dist_Node(24)_Node(11) 10
xfc_Node(24)_Node(11) 33
dist_Node(24)_Node(9) 17
xfc_Node(24)_Node(9) 40
dist_Node(24)_Node(8) 18
xfc_Node(24)_Node(8) 41
dist_Node(24)_Node(7) 15
xfc_Node(24)_Node(7) 38
dist_Node(24)_Node(18) 13
xfc_Node(24)_Node(18) 36
dist_Node(24)_Node(16) 15
xfc_Node(24)_Node(16) 38
dist_Node(24)_Node(10) 14
xfc_Node(24)_Node(10) 37
dist_Node(24)_Node(15) 8
xfc_Node(24)_Node(15) 31
dist_Node(24)_Node(17) 13
xfc_Node(24)_Node(17) 36
dist_Node(24)_Node(14) 6
xfc_Node(24)_Node(14) 29
dist_Node(24)_Node(13) 4
xfc_Node(24)_Node(13) 27
dist_Node(24)_Node(24) 0
xfc_Node(24)_Node(24) 23
dist_Node(24)_Node(23) 2
xfc_Node(24)_Node(23) 25
dist_Node(24)_Node(19) 11
xfc_Node(24)_Node(19) 34
dist_Node(24)_Node(22) 5
xfc_Node(24)_Node(22) 28
dist_Node(24)_Node(20) 9
xfc_Node(24)_Node(20) 32
dist_Node(24)_Node(21) 3
xfc_Node(24)_Node(21) 26
dist_Node(23)_Node(1) 17
xfc_Node(23)_Node(1) 40
dist_Node(23)_Node(2) 23
xfc_Node(23)_Node(2) 46
dist_Node(23)_Node(3) 13
xfc_Node(23)_Node(3) 36
dist_Node(23)_Node(6) 20
xfc_Node(23)_Node(6) 43
dist_Node(23)_Node(4) 14
xfc_Node(23)_Node(4) 14
dist_Node(23)_Node(12) 9
xfc_Node(23)_Node(12) 32
dist_Node(23)_Node(5) 16
xfc_Node(23)_Node(5) 39
dist_Node(23)_Node(11) 8
xfc_Node(23)_Node(11) 31
dist_Node(23)_Node(9) 16
xfc_Node(23)_Node(9) 39
dist_Node(23)_Node(8) 18
xfc_Node(23)_Node(8) 41
dist_Node(23)_Node(7) 15
xfc_Node(23)_Node(7) 38
dist_Node(23)_Node(18) 13
xfc_Node(23)_Node(18) 36
dist_Node(23)_Node(16) 14
xfc_Node(23)_Node(16) 37
dist_Node(23)_Node(10) 13
xfc_Node(23)_Node(10) 36
dist_Node(23)_Node(15) 7
xfc_Node(23)_Node(15) 30
dist_Node(23)_Node(17) 12
xfc_Node(23)_Node(17) 35
dist_Node(23)_Node(14) 4
xfc_Node(23)_Node(14) 27
dist_Node(23)_Node(13) 6
xfc_Node(23)_Node(13) 29
dist_Node(23)_Node(24) 2
xfc_Node(23)_Node(24) 25
dist_Node(23)_Node(23) 0
xfc_Node(23)_Node(23) 23
dist_Node(23)_Node(19) 10
xfc_Node(23)_Node(19) 33
dist_Node(23)_Node(22) 4
xfc_Node(23)_Node(22) 27
dist_Node(23)_Node(20) 9
xfc_Node(23)_Node(20) 32
dist_Node(23)_Node(21) 5
xfc_Node(23)_Node(21) 28
dist_Node(19)_Node(1) 22
xfc_Node(19)_Node(1) 45
dist_Node(19)_Node(2) 16
xfc_Node(19)_Node(2) 39
dist_Node(19)_Node(3) 21
xfc_Node(19)_Node(3) 44
dist_Node(19)_Node(6) 11
xfc_Node(19)_Node(6) 34
dist_Node(19)_Node(4) 17
xfc_Node(19)_Node(4) 17
dist_Node(19)_Node(12) 18
xfc_Node(19)_Node(12) 41
dist_Node(19)_Node(5) 15
xfc_Node(19)_Node(5) 38
dist_Node(19)_Node(11) 12
xfc_Node(19)_Node(11) 35
dist_Node(19)_Node(9) 11
xfc_Node(19)_Node(9) 34
dist_Node(19)_Node(8) 9
xfc_Node(19)_Node(8) 32
dist_Node(19)_Node(7) 9
xfc_Node(19)_Node(7) 32
dist_Node(19)_Node(18) 7
xfc_Node(19)_Node(18) 30
dist_Node(19)_Node(16) 4
xfc_Node(19)_Node(16) 27
dist_Node(19)_Node(10) 8
xfc_Node(19)_Node(10) 31
dist_Node(19)_Node(15) 3
xfc_Node(19)_Node(15) 26
dist_Node(19)_Node(17) 2
xfc_Node(19)_Node(17) 25
dist_Node(19)_Node(14) 8
xfc_Node(19)_Node(14) 31
dist_Node(19)_Node(13) 15
xfc_Node(19)_Node(13) 38
dist_Node(19)_Node(24) 11
xfc_Node(19)_Node(24) 34
dist_Node(19)_Node(23) 10
xfc_Node(19)_Node(23) 33
dist_Node(19)_Node(19) 0
xfc_Node(19)_Node(19) 23
dist_Node(19)_Node(22) 6
xfc_Node(19)_Node(22) 29
dist_Node(19)_Node(20) 4
xfc_Node(19)_Node(20) 27
dist_Node(19)_Node(21) 8
xfc_Node(19)_Node(21) 31
dist_Node(22)_Node(1) 20
xfc_Node(22)_Node(1) 43
dist_Node(22)_Node(2) 21
xfc_Node(22)_Node(2) 44
dist_Node(22)_Node(3) 16
xfc_Node(22)_Node(3) 39
dist_Node(22)_Node(6) 16
xfc_Node(22)_Node(6) 39
dist_Node(22)_Node(4) 18
xfc_Node(22)_Node(4) 18
dist_Node(22)_Node(12) 12
xfc_Node(22)_Node(12) 35
dist_Node(22)_Node(5) 17
xfc_Node(22)_Node(5) 40
dist_Node(22)_Node(11) 12
xfc_Node(22)_Node(11) 35
dist_Node(22)_Node(9) 12
xfc_Node(22)_Node(9) 35
dist_Node(22)_Node(8) 14
xfc_Node(22)_Node(8) 37
dist_Node(22)_Node(7) 11
xfc_Node(22)_Node(7) 34
dist_Node(22)_Node(18) 9
xfc_Node(22)_Node(18) 32
dist_Node(22)_Node(16) 10
xfc_Node(22)_Node(16) 33
dist_Node(22)_Node(10) 9
xfc_Node(22)_Node(10) 32
dist_Node(22)_Node(15) 3
xfc_Node(22)_Node(15) 26
dist_Node(22)_Node(17) 8
xfc_Node(22)_Node(17) 31
dist_Node(22)_Node(14) 8
xfc_Node(22)_Node(14) 31
dist_Node(22)_Node(13) 9
xfc_Node(22)_Node(13) 32
dist_Node(22)_Node(24) 5
xfc_Node(22)_Node(24) 28
dist_Node(22)_Node(23) 4
xfc_Node(22)_Node(23) 27
dist_Node(22)_Node(19) 6
xfc_Node(22)_Node(19) 29
dist_Node(22)_Node(22) 0
xfc_Node(22)_Node(22) 23
dist_Node(22)_Node(20) 5
xfc_Node(22)_Node(20) 28
dist_Node(22)_Node(21) 2
xfc_Node(22)_Node(21) 25
dist_Node(20)_Node(1) 22
xfc_Node(20)_Node(1) 45
dist_Node(20)_Node(2) 16
xfc_Node(20)_Node(2) 39
dist_Node(20)_Node(3) 20
xfc_Node(20)_Node(3) 43
dist_Node(20)_Node(6) 11
xfc_Node(20)_Node(6) 34
dist_Node(20)_Node(4) 17
xfc_Node(20)_Node(4) 17
dist_Node(20)_Node(12) 16
xfc_Node(20)_Node(12) 39
dist_Node(20)_Node(5) 15
xfc_Node(20)_Node(5) 38
dist_Node(20)_Node(11) 16
xfc_Node(20)_Node(11) 39
dist_Node(20)_Node(9) 14
xfc_Node(20)_Node(9) 37
dist_Node(20)_Node(8) 9
xfc_Node(20)_Node(8) 32
dist_Node(20)_Node(7) 6
xfc_Node(20)_Node(7) 29
dist_Node(20)_Node(18) 4
xfc_Node(20)_Node(18) 27
dist_Node(20)_Node(16) 7
xfc_Node(20)_Node(16) 30
dist_Node(20)_Node(10) 11
xfc_Node(20)_Node(10) 34
dist_Node(20)_Node(15) 7
xfc_Node(20)_Node(15) 30
dist_Node(20)_Node(17) 6
xfc_Node(20)_Node(17) 29
dist_Node(20)_Node(14) 12
xfc_Node(20)_Node(14) 35
dist_Node(20)_Node(13) 13
xfc_Node(20)_Node(13) 36
dist_Node(20)_Node(24) 9
xfc_Node(20)_Node(24) 32
dist_Node(20)_Node(23) 9
xfc_Node(20)_Node(23) 32
dist_Node(20)_Node(19) 4
xfc_Node(20)_Node(19) 27
dist_Node(20)_Node(22) 5
xfc_Node(20)_Node(22) 28
dist_Node(20)_Node(20) 0
xfc_Node(20)_Node(20) 23
dist_Node(20)_Node(21) 6
xfc_Node(20)_Node(21) 29
dist_Node(21)_Node(1) 18
xfc_Node(21)_Node(1) 41
dist_Node(21)_Node(2) 22
xfc_Node(21)_Node(2) 45
dist_Node(21)_Node(3) 14
xfc_Node(21)_Node(3) 37
dist_Node(21)_Node(6) 17
xfc_Node(21)_Node(6) 40
dist_Node(21)_Node(4) 18
xfc_Node(21)_Node(4) 18
dist_Node(21)_Node(12) 10
xfc_Node(21)_Node(12) 33
dist_Node(21)_Node(5) 19
xfc_Node(21)_Node(5) 42
dist_Node(21)_Node(11) 13
xfc_Node(21)_Node(11) 36
dist_Node(21)_Node(9) 14
xfc_Node(21)_Node(9) 37
dist_Node(21)_Node(8) 15
xfc_Node(21)_Node(8) 38
dist_Node(21)_Node(7) 12
xfc_Node(21)_Node(7) 35
dist_Node(21)_Node(18) 10
xfc_Node(21)_Node(18) 33
dist_Node(21)_Node(16) 12
xfc_Node(21)_Node(16) 35
dist_Node(21)_Node(10) 11
xfc_Node(21)_Node(10) 34
dist_Node(21)_Node(15) 5
xfc_Node(21)_Node(15) 28
dist_Node(21)_Node(17) 10
xfc_Node(21)_Node(17) 33
dist_Node(21)_Node(14) 9
xfc_Node(21)_Node(14) 32
dist_Node(21)_Node(13) 7
xfc_Node(21)_Node(13) 30
dist_Node(21)_Node(24) 3
xfc_Node(21)_Node(24) 26
dist_Node(21)_Node(23) 5
xfc_Node(21)_Node(23) 28
dist_Node(21)_Node(19) 8
xfc_Node(21)_Node(19) 31
dist_Node(21)_Node(22) 2
xfc_Node(21)_Node(22) 25
dist_Node(21)_Node(20) 6
xfc_Node(21)_Node(20) 29
dist_Node(21)_Node(21) 0
xfc_Node(21)_Node(21) 23
min_Node(1) 8
min_Node(2) 11
min_Node(3) 4
min_Node(6) 6
min_Node(4) 0
min_Node(12) 8
min_Node(5) 2
min_Node(11) 6
min_Node(9) 7
min_Node(8) 8
min_Node(7) 11
min_Node(18) 13
min_Node(16) 13
min_Node(10) 10
min_Node(15) 15
min_Node(17) 15
min_Node(14) 10
min_Node(13) 11
min_Node(24) 15
min_Node(23) 14
min_Node(19) 17
min_Node(22) 18
min_Node(20) 17
min_Node(21) 18
